p cnf 37 128
2 3 -4 0
-2 -3 -4 0
2 -3 4 0
-2 3 4 0
-1 4 -5 0
1 -4 -5 0
-1 -4 5 0
1 4 5 0
-7 5 0
-7 6 0
-5 -6 7 0
-2 9 -10 0
2 -9 -10 0
-2 -9 10 0
2 9 10 0
8 -10 -11 0
-8 10 -11 0
8 10 11 0
-8 -10 11 0
-12 -7 0
-12 11 0
7 -11 12 0
14 4 0
14 -13 0
-4 13 -14 0
-14 -15 -16 0
14 15 -16 0
-14 15 16 0
14 -15 16 0
-17 18 0
17 18 0
-4 -18 -19 0
4 18 -19 0
-4 18 19 0
4 -18 19 0
21 -10 0
21 -20 0
10 20 -21 0
-8 14 -22 0
8 -14 -22 0
-8 -14 22 0
8 14 22 0
-15 22 -23 0
15 -22 -23 0
-15 -22 23 0
15 22 23 0
17 23 -24 0
-17 -23 -24 0
17 -23 24 0
-17 23 24 0
25 21 0
25 24 0
-21 -24 -25 0
19 -25 -26 0
-19 25 -26 0
19 25 26 0
-19 -25 26 0
14 20 -27 0
-14 -20 -27 0
14 -20 27 0
-14 20 27 0
-28 -26 0
-28 27 0
26 -27 28 0
15 14 -29 0
-15 -14 -29 0
15 -14 29 0
-15 14 29 0
-8 29 -30 0
8 -29 -30 0
-8 -29 30 0
8 29 30 0
-17 14 -31 0
17 -14 -31 0
-17 -14 31 0
17 14 31 0
30 -31 -32 0
-30 31 -32 0
30 31 32 0
-30 -31 32 0
28 32 -33 0
-28 -32 -33 0
28 -32 33 0
-28 32 33 0
-34 15 0
-34 -10 0
-15 10 34 0
-33 34 -35 0
33 -34 -35 0
-33 -34 35 0
33 34 35 0
16 -35 -36 0
-16 35 -36 0
16 35 36 0
-16 -35 36 0
-37 12 0
-37 -36 0
-12 36 37 0
21 -16 0
23 17 -26 -11 19 0
15 3 8 30 -1 -22 0
36 27 0
32 -2 -12 -33 18 0
-8 34 0
-16 -24 0
32 -3 -18 0
-21 -35 -14 0
-16 -20 -21 34 -11 0
36 -15 9 28 26 0
18 -23 -17 -12 0
-23 -28 -2 0
23 -9 -20 -16 27 22 0
11 35 0
2 22 -19 0
18 26 0
35 19 -33 -25 -24 -32 0
24 13 -5 0
31 35 12 -16 17 -11 0
19 25 -23 -6 -33 0
27 -33 -10 -14 0
-29 -36 14 26 0
-23 -30 0
-34 17 -37 0
5 18 -30 0
29 25 -30 -26 0
-36 -23 0
-34 -26 -16 12 0
37 0
